Minimize
  - 56 y_0 - 26 y_1 - 32 y_2 - 33 y_3 - 20 y_4 - 55 y_5 - 24 y_6 - 45 y_7
   - 52 y_8 - 38 y_9 - 14 y_10 - 32 y_11 - 42 y_12 - 42 y_13 - 55 y_14
   - 22 y_15 - 46 y_16 - 32 y_17 - 12 y_18 - 14 y_19 - 29 y_20 - 48 y_21
   - 35 y_22 - 46 y_23 - 45 y_24 - 47 y_25 - 48 y_26 - 61 y_28 - 47 y_29
   - 16 y_30 - 28 y_31 - 48 y_32 - 36 y_33 - 58 y_34 - 49 y_35 - 52 y_36
   - 60 y_37 - 52 y_38 - 63 y_39 - 56 y_40 - 32 y_41 - 47 y_42 - 56 y_43
   - 34 y_44 - 36 y_45 - 56 y_46 - 63 y_47 - 44 y_48 - 35 y_49 + 89 x_0_1
   + 90 x_0_2 + 58 x_0_3 + 74 x_0_4 + 36 x_0_5 + 90 x_0_6 + 31 x_0_7
   + 10 x_0_8 + 87 x_0_10 + 54 x_0_11 + 52 x_0_13 + 79 x_0_15 + 23 x_0_16
   + 92 x_0_18 + 84 x_0_19 + 81 x_0_20 + 22 x_0_21 + 97 x_0_24 + 73 x_0_26
   + 112 x_0_27 + 41 x_0_28 + 102 x_0_29 + 83 x_0_30 + 84 x_0_31
   + 105 x_0_32 + 47 x_0_33 + 44 x_0_34 + 82 x_0_35 + 61 x_0_36 + 37 x_0_37
   + 58 x_0_38 + 14 x_0_40 + 56 x_0_41 + 71 x_0_42 + 5 x_0_43 + 61 x_0_44
   + 16 x_0_46 + 36 x_0_47 + 31 x_1_3 + 52 x_1_4 + 71 x_1_5 + 81 x_1_7
   + 85 x_1_8 + 24 x_1_9 + 36 x_1_11 + 33 x_1_12 + 42 x_1_13 + 66 x_1_16
   + 14 x_1_17 + 32 x_1_18 + 43 x_1_19 + 8 x_1_20 + 67 x_1_21 + 30 x_1_22
   + 37 x_1_24 + 69 x_1_25 + 46 x_1_26 + 82 x_1_28 + 43 x_1_29 + 28 x_1_30
   + 45 x_1_32 + 43 x_1_33 + 56 x_1_36 + 80 x_1_37 + 58 x_1_38 + 89 x_1_39
   + 82 x_1_40 + 44 x_1_42 + 71 x_1_45 + 81 x_1_46 + 88 x_1_47 + 56 x_1_48
   + 68 x_1_49 + 34 x_2_3 + 68 x_2_5 + 17 x_2_6 + 87 x_2_7 + 65 x_2_10
   + 41 x_2_11 + 40 x_2_13 + 66 x_2_14 + 6 x_2_17 + 43 x_2_18 + 12 x_2_20
   + 69 x_2_21 + 31 x_2_22 + 103 x_2_23 + 26 x_2_24 + 71 x_2_25 + 38 x_2_26
   + 78 x_2_28 + 11 x_2_31 + 33 x_2_32 + 46 x_2_33 + 69 x_2_34 + 36 x_2_35
   + 50 x_2_36 + 77 x_2_37 + 86 x_2_39 + 74 x_2_41 + 88 x_2_43 + 85 x_2_44
   + 78 x_2_45 + 80 x_2_46 + 84 x_2_47 + 43 x_3_4 + 44 x_3_5 + 53 x_3_7
   + 33 x_3_9 + 27 x_3_12 + 18 x_3_13 + 35 x_3_16 + 42 x_3_18 + 24 x_3_20
   + 36 x_3_21 + 71 x_3_23 + 49 x_3_24 + 37 x_3_25 + 66 x_3_27 + 57 x_3_28
   + 56 x_3_29 + 33 x_3_30 + 26 x_3_31 + 58 x_3_32 + 12 x_3_33 + 49 x_3_34
   + 40 x_3_36 + 54 x_3_37 + 40 x_3_38 + 56 x_3_43 + 57 x_3_44 + 48 x_3_45
   + 60 x_3_47 + 48 x_4_6 + 50 x_4_7 + 13 x_4_10 + 37 x_4_11 + 69 x_4_12
   + 60 x_4_13 + 13 x_4_15 + 56 x_4_16 + 14 x_4_19 + 60 x_4_21 + 49 x_4_22
   + 53 x_4_23 + 57 x_4_25 + 41 x_4_27 + 93 x_4_29 + 52 x_4_31 + 41 x_4_33
   + 87 x_4_34 + 83 x_4_36 + 89 x_4_37 + 83 x_4_38 + 77 x_4_40 + 22 x_4_41
   + 30 x_4_45 + 94 x_4_47 + 57 x_4_48 + 29 x_4_49 + 56 x_5_7 + 41 x_5_8
   + 58 x_5_9 + 46 x_5_11 + 28 x_5_13 + 6 x_5_14 + 89 x_5_15 + 28 x_5_16
   + 85 x_5_18 + 84 x_5_19 + 62 x_5_20 + 24 x_5_21 + 42 x_5_22 + 67 x_5_24
   + 30 x_5_25 + 40 x_5_26 + 109 x_5_27 + 13 x_5_28 + 65 x_5_31 + 74 x_5_32
   + 39 x_5_33 + 9 x_5_34 + 49 x_5_35 + 10 x_5_37 + 23 x_5_38 + 22 x_5_40
   + 70 x_5_41 + 31 x_5_43 + 79 x_5_44 + 66 x_5_45 + 20 x_5_46 + 17 x_5_47
   + 23 x_5_48 + 64 x_5_49 + 80 x_6_7 + 49 x_6_10 + 36 x_6_11 + 45 x_6_13
   + 60 x_6_15 + 67 x_6_16 + 19 x_6_17 + 39 x_6_19 + 12 x_6_20 + 68 x_6_21
   + 32 x_6_22 + 42 x_6_24 + 85 x_6_28 + 49 x_6_29 + 23 x_6_30 + 9 x_6_31
   + 50 x_6_32 + 43 x_6_33 + 77 x_6_34 + 51 x_6_35 + 60 x_6_36 + 62 x_6_38
   + 92 x_6_39 + 84 x_6_40 + 48 x_6_42 + 88 x_6_43 + 74 x_6_44 + 69 x_6_45
   + 82 x_6_46 + 58 x_6_48 + 65 x_6_49 + 20 x_7_8 + 85 x_7_9 + 63 x_7_10
   + 76 x_7_12 + 57 x_7_13 + 52 x_7_15 + 74 x_7_18 + 62 x_7_19 + 75 x_7_20
   + 57 x_7_22 + 23 x_7_23 + 101 x_7_24 + 26 x_7_25 + 83 x_7_26 + 90 x_7_27
   + 66 x_7_28 + 107 x_7_29 + 78 x_7_31 + 41 x_7_33 + 91 x_7_35 + 75 x_7_36
   + 41 x_7_40 + 28 x_7_41 + 80 x_7_42 + 34 x_7_43 + 63 x_7_47 + 21 x_7_49
   + 71 x_8_12 + 52 x_8_13 + 70 x_8_15 + 20 x_8_16 + 94 x_8_17 + 85 x_8_18
   + 75 x_8_19 + 57 x_8_22 + 41 x_8_23 + 97 x_8_24 + 17 x_8_25 + 75 x_8_26
   + 49 x_8_28 + 102 x_8_29 + 77 x_8_30 + 80 x_8_31 + 50 x_8_34 + 84 x_8_35
   + 65 x_8_36 + 44 x_8_37 + 62 x_8_38 + 42 x_8_39 + 22 x_8_40 + 46 x_8_41
   + 72 x_8_42 + 14 x_8_43 + 51 x_8_44 + 39 x_8_45 + 23 x_8_46 + 44 x_8_47
   + 33 x_8_48 + 38 x_8_49 + 74 x_9_10 + 55 x_9_14 + 82 x_9_15 + 63 x_9_16
   + 20 x_9_20 + 63 x_9_21 + 104 x_9_23 + 17 x_9_24 + 66 x_9_25 + 24 x_9_26
   + 23 x_9_29 + 21 x_9_31 + 22 x_9_35 + 37 x_9_36 + 78 x_9_41 + 22 x_9_42
   + 81 x_9_43 + 89 x_9_44 + 81 x_9_45 + 73 x_9_47 + 51 x_9_48 + 77 x_9_49
   + 47 x_10_11 + 69 x_10_13 + 94 x_10_14 + 15 x_10_15 + 68 x_10_17
   + 73 x_10_21 + 57 x_10_22 + 64 x_10_23 + 90 x_10_24 + 70 x_10_25
   + 89 x_10_26 + 26 x_10_30 + 55 x_10_31 + 98 x_10_32 + 52 x_10_33
   + 98 x_10_34 + 92 x_10_36 + 101 x_10_37 + 92 x_10_38 + 106 x_10_39
   + 90 x_10_40 + 35 x_10_41 + 85 x_10_42 + 88 x_10_43 + 39 x_10_44
   + 43 x_10_45 + 89 x_10_46 + 69 x_10_48 + 42 x_10_49 + 35 x_11_12
   + 23 x_11_13 + 48 x_11_15 + 31 x_11_16 + 47 x_11_17 + 41 x_11_18
   + 38 x_11_19 + 30 x_11_20 + 33 x_11_21 + 14 x_11_22 + 63 x_11_23
   + 58 x_11_24 + 47 x_11_26 + 59 x_11_28 + 64 x_11_29 + 32 x_11_31
   + 67 x_11_32 + 55 x_11_37 + 46 x_11_38 + 62 x_11_39 + 37 x_11_41
   + 43 x_11_42 + 53 x_11_43 + 36 x_11_49 + 20 x_12_13 + 41 x_12_14
   + 81 x_12_15 + 51 x_12_16 + 60 x_12_18 + 66 x_12_19 + 50 x_12_21
   + 21 x_12_22 + 96 x_12_23 + 26 x_12_24 + 83 x_12_27 + 52 x_12_28
   + 29 x_12_31 + 34 x_12_32 + 36 x_12_33 + 43 x_12_34 + 17 x_12_35
   + 51 x_12_37 + 61 x_12_39 + 61 x_12_40 + 73 x_12_41 + 84 x_12_44
   + 59 x_12_46 + 38 x_12_48 + 70 x_12_49 + 28 x_13_14 + 71 x_13_15
   + 31 x_13_16 + 47 x_13_17 + 60 x_13_19 + 34 x_13_20 + 14 x_13_22
   + 78 x_13_23 + 35 x_13_25 + 26 x_13_26 + 83 x_13_27 + 40 x_13_28
   + 51 x_13_29 + 37 x_13_31 + 54 x_13_32 + 20 x_13_33 + 34 x_13_35
   + 23 x_13_36 + 23 x_13_38 + 47 x_13_39 + 42 x_13_40 + 23 x_13_42
   + 49 x_13_43 + 69 x_13_44 + 45 x_13_47 + 19 x_13_48 + 54 x_13_49
   + 93 x_14_15 + 34 x_14_16 + 72 x_14_17 + 86 x_14_19 + 62 x_14_20
   + 30 x_14_21 + 85 x_14_23 + 111 x_14_27 + 66 x_14_29 + 78 x_14_30
   + 65 x_14_31 + 69 x_14_32 + 42 x_14_33 + 4 x_14_34 + 22 x_14_36
   + 11 x_14_37 + 18 x_14_38 + 21 x_14_39 + 28 x_14_40 + 74 x_14_41
   + 35 x_14_42 + 37 x_14_43 + 71 x_14_45 + 18 x_14_47 + 26 x_14_48
   + 64 x_15_16 + 79 x_15_17 + 38 x_15_18 + 64 x_15_20 + 68 x_15_21
   + 61 x_15_22 + 49 x_15_23 + 99 x_15_24 + 64 x_15_25 + 44 x_15_27
   + 37 x_15_30 + 52 x_15_33 + 97 x_15_34 + 94 x_15_36 + 98 x_15_37
   + 94 x_15_38 + 84 x_15_40 + 24 x_15_41 + 90 x_15_42 + 81 x_15_43
   + 25 x_15_44 + 31 x_15_45 + 84 x_15_46 + 102 x_15_47 + 66 x_15_48
   + 32 x_15_49 + 70 x_16_18 + 5 x_16_21 + 37 x_16_22 + 52 x_16_23
   + 77 x_16_24 + 3 x_16_25 + 56 x_16_26 + 92 x_16_27 + 82 x_16_29
   + 61 x_16_31 + 24 x_16_33 + 35 x_16_37 + 38 x_16_39 + 43 x_16_41
   + 22 x_16_43 + 51 x_16_44 + 38 x_16_45 + 39 x_16_47 + 13 x_16_48
   + 36 x_16_49 + 57 x_17_19 + 75 x_17_21 + 37 x_17_22 + 109 x_17_23
   + 26 x_17_24 + 77 x_17_25 + 42 x_17_26 + 64 x_17_27 + 84 x_17_28
   + 31 x_17_29 + 16 x_17_31 + 75 x_17_34 + 55 x_17_36 + 83 x_17_37
   + 58 x_17_38 + 89 x_17_40 + 41 x_17_42 + 94 x_17_43 + 90 x_17_44
   + 84 x_17_45 + 90 x_17_47 + 63 x_17_48 + 16 x_18_19 + 35 x_18_20
   + 73 x_18_21 + 46 x_18_22 + 69 x_18_24 + 72 x_18_25 + 73 x_18_26
   + 24 x_18_27 + 98 x_18_28 + 75 x_18_29 + 34 x_18_31 + 76 x_18_32
   + 91 x_18_34 + 75 x_18_35 + 102 x_18_39 + 90 x_18_40 + 70 x_18_42
   + 91 x_18_43 + 57 x_18_44 + 57 x_18_45 + 89 x_18_46 + 102 x_18_47
   + 65 x_18_48 + 54 x_18_49 + 44 x_19_20 + 67 x_19_23 + 79 x_19_24
   + 65 x_19_25 + 79 x_19_26 + 29 x_19_27 + 97 x_19_28 + 44 x_19_31
   + 90 x_19_34 + 82 x_19_35 + 83 x_19_36 + 93 x_19_37 + 84 x_19_40
   + 36 x_19_41 + 75 x_19_42 + 84 x_19_43 + 42 x_19_49 + 59 x_20_21
   + 91 x_20_23 + 61 x_20_25 + 40 x_20_26 + 58 x_20_27 + 42 x_20_29
   + 29 x_20_30 + 43 x_20_32 + 65 x_20_34 + 48 x_20_36 + 72 x_20_37
   + 51 x_20_38 + 74 x_20_40 + 62 x_20_41 + 79 x_20_43 + 73 x_20_44
   + 73 x_20_46 + 79 x_20_47 + 48 x_20_48 + 38 x_21_22 + 56 x_21_23
   + 76 x_21_24 + 7 x_21_25 + 54 x_21_26 + 95 x_21_27 + 35 x_21_28
   + 81 x_21_29 + 65 x_21_30 + 62 x_21_31 + 84 x_21_32 + 33 x_21_34
   + 62 x_21_35 + 44 x_21_36 + 31 x_21_37 + 41 x_21_38 + 51 x_21_42
   + 20 x_21_43 + 56 x_21_44 + 43 x_21_45 + 16 x_21_46 + 34 x_21_47
   + 12 x_21_48 + 41 x_21_49 + 44 x_22_24 + 40 x_22_25 + 33 x_22_26
   + 70 x_22_27 + 54 x_22_28 + 50 x_22_29 + 37 x_22_30 + 53 x_22_32
   + 16 x_22_33 + 38 x_22_35 + 35 x_22_36 + 51 x_22_37 + 35 x_22_38
   + 60 x_22_39 + 63 x_22_44 + 51 x_22_46 + 59 x_22_47 + 26 x_22_48
   + 120 x_23_24 + 49 x_23_25 + 104 x_23_26 + 89 x_23_28 + 126 x_23_29
   + 76 x_23_30 + 93 x_23_31 + 129 x_23_32 + 60 x_23_33 + 112 x_23_35
   + 84 x_23_37 + 63 x_23_40 + 101 x_23_42 + 55 x_23_43 + 25 x_23_44
   + 25 x_23_45 + 63 x_23_48 + 28 x_23_49 + 27 x_24_26 + 74 x_24_28
   + 64 x_24_30 + 60 x_24_33 + 64 x_24_34 + 20 x_24_35 + 42 x_24_36
   + 74 x_24_37 + 45 x_24_38 + 84 x_24_39 + 86 x_24_40 + 28 x_24_42
   + 93 x_24_43 + 97 x_24_45 + 84 x_24_46 + 81 x_24_47 + 93 x_24_49
   + 59 x_25_26 + 86 x_25_29 + 63 x_25_30 + 64 x_25_31 + 89 x_25_32
   + 26 x_25_33 + 40 x_25_34 + 67 x_25_35 + 50 x_25_36 + 37 x_25_37
   + 47 x_25_38 + 20 x_25_40 + 56 x_25_42 + 50 x_25_44 + 37 x_25_45
   + 20 x_25_46 + 16 x_25_48 + 35 x_25_49 + 30 x_26_29 + 66 x_26_30
   + 33 x_26_32 + 15 x_26_36 + 18 x_26_38 + 61 x_26_40 + 4 x_26_42
   + 95 x_26_44 + 84 x_26_45 + 59 x_26_46 + 54 x_26_47 + 122 x_27_28
   + 33 x_27_30 + 56 x_27_31 + 95 x_27_32 + 71 x_27_33 + 115 x_27_34
   + 104 x_27_36 + 105 x_27_38 + 126 x_27_39 + 112 x_27_40 + 63 x_27_41
   + 93 x_27_42 + 113 x_27_43 + 88 x_27_48 + 90 x_28_30 + 77 x_28_31
   + 80 x_28_32 + 52 x_28_33 + 55 x_28_35 + 32 x_28_36 + 4 x_28_37
   + 28 x_28_38 + 27 x_28_40 + 46 x_28_42 + 36 x_28_43 + 91 x_28_44
   + 78 x_28_45 + 8 x_28_47 + 36 x_28_48 + 75 x_28_49 + 42 x_29_31
   + 3 x_29_32 + 67 x_29_34 + 22 x_29_35 + 45 x_29_36 + 77 x_29_37
   + 87 x_29_39 + 90 x_29_40 + 101 x_29_41 + 31 x_29_42 + 98 x_29_43
   + 112 x_29_44 + 103 x_29_45 + 100 x_29_49 + 72 x_30_32 + 39 x_30_33
   + 83 x_30_34 + 69 x_30_35 + 72 x_30_36 + 73 x_30_38 + 94 x_30_39
   + 81 x_30_40 + 63 x_30_42 + 83 x_30_43 + 53 x_30_44 + 80 x_30_46
   + 93 x_30_47 + 56 x_30_48 + 48 x_30_49 + 43 x_31_32 + 38 x_31_33
   + 68 x_31_34 + 42 x_31_35 + 75 x_31_37 + 53 x_31_38 + 84 x_31_39
   + 77 x_31_40 + 64 x_31_41 + 39 x_31_42 + 82 x_31_43 + 75 x_31_44
   + 68 x_31_45 + 82 x_31_47 + 65 x_31_49 + 69 x_32_33 + 71 x_32_34
   + 25 x_32_35 + 80 x_32_37 + 52 x_32_38 + 90 x_32_39 + 94 x_32_40
   + 103 x_32_41 + 101 x_32_43 + 115 x_32_44 + 91 x_32_46 + 87 x_32_47
   + 73 x_32_48 + 102 x_32_49 + 46 x_33_34 + 43 x_33_36 + 48 x_33_37
   + 55 x_33_39 + 42 x_33_40 + 42 x_33_42 + 49 x_33_44 + 39 x_33_45
   + 41 x_33_46 + 55 x_33_47 + 17 x_33_48 + 35 x_33_49 + 46 x_34_35
   + 23 x_34_36 + 10 x_34_37 + 19 x_34_38 + 79 x_34_41 + 37 x_34_42
   + 39 x_34_43 + 88 x_34_44 + 76 x_34_45 + 17 x_34_47 + 73 x_34_49
   + 23 x_35_36 + 26 x_35_38 + 65 x_35_39 + 70 x_35_40 + 90 x_35_41
   + 11 x_35_42 + 78 x_35_43 + 101 x_35_44 + 91 x_35_45 + 67 x_35_46
   + 87 x_35_49 + 32 x_36_37 + 4 x_36_38 + 48 x_36_40 + 80 x_36_41
   + 15 x_36_42 + 80 x_36_45 + 39 x_36_47 + 35 x_36_48 + 76 x_36_49
   + 29 x_37_38 + 10 x_37_39 + 23 x_37_40 + 32 x_37_43 + 86 x_37_44
   + 21 x_37_46 + 8 x_37_47 + 32 x_37_48 + 71 x_37_49 + 45 x_38_40
   + 79 x_38_41 + 18 x_38_42 + 53 x_38_43 + 78 x_38_45 + 43 x_38_46
   + 36 x_38_47 + 33 x_38_48 + 80 x_39_41 + 56 x_39_42 + 88 x_39_44
   + 76 x_39_45 + 20 x_39_46 + 3 x_39_47 + 73 x_39_49 + 59 x_40_42
   + 56 x_40_45 + 26 x_40_48 + 54 x_40_49 + 79 x_41_42 + 12 x_41_44
   + 8 x_41_45 + 62 x_41_46 + 82 x_41_47 + 48 x_41_48 + 8 x_41_49
   + 67 x_42_43 + 91 x_42_44 + 80 x_42_45 + 57 x_42_46 + 40 x_42_48
   + 77 x_42_49 + 64 x_43_44 + 52 x_43_45 + 11 x_43_46 + 31 x_43_47
   + 31 x_43_48 + 50 x_43_49 + 69 x_44_46 + 58 x_44_48 + 56 x_45_46
   + 77 x_45_47 + 46 x_45_48 + 4 x_45_49 + 21 x_46_47 + 25 x_46_48
   + 37 x_47_48 + 75 x_47_49 + 2019 Constant
Subject To
 c_0: y_42 = 1
 c_1_0: y_0 + y_8 + y_43 >= 1
 c_1_1: y_1 + y_6 + y_20 + y_31 >= 1
 c_1_2: y_2 + y_17 >= 1
 c_1_3: y_3 + y_11 + y_22 >= 1
 c_1_4: y_4 >= 1
 c_1_5: y_5 + y_14 + y_34 + y_37 >= 1
 c_1_6: y_1 + y_6 + y_31 >= 1
 c_1_7: y_7 >= 1
 c_1_8: y_0 + y_8 >= 1
 c_1_9: y_9 >= 1
 c_1_10: y_10 >= 1
 c_1_11: y_3 + y_11 + y_33 >= 1
 c_1_12: y_12 + y_42 >= 1
 c_1_13: y_13 >= 1
 c_1_14: y_5 + y_14 + y_34 >= 1
 c_1_15: y_15 >= 1
 c_1_16: y_16 + y_21 + y_25 >= 1
 c_1_17: y_2 + y_17 >= 1
 c_1_18: y_18 + y_30 >= 1
 c_1_19: y_19 >= 1
 c_1_20: y_1 + y_20 + y_31 >= 1
 c_1_21: y_16 + y_21 + y_25 >= 1
 c_1_22: y_3 + y_22 >= 1
 c_1_23: y_23 >= 1
 c_1_24: y_24 + y_29 + y_32 >= 1
 c_1_25: y_16 + y_21 + y_25 >= 1
 c_1_26: y_26 + y_35 + y_42 >= 1
 c_1_27: y_27 >= 1
 c_1_28: y_28 + y_34 + y_37 + y_47 >= 1
 c_1_29: y_24 + y_29 + y_32 >= 1
 c_1_30: y_18 + y_30 >= 1
 c_1_31: y_1 + y_6 + y_20 + y_31 >= 1
 c_1_32: y_24 + y_29 + y_32 >= 1
 c_1_33: y_11 + y_33 >= 1
 c_1_34: y_5 + y_14 + y_28 + y_34 + y_37 >= 1
 c_1_35: y_26 + y_35 >= 1
 c_1_36: y_36 + y_38 >= 1
 c_1_37: y_5 + y_28 + y_34 + y_37 + y_39 + y_47 >= 1
 c_1_38: y_36 + y_38 >= 1
 c_1_39: y_37 + y_39 + y_47 >= 1
 c_1_40: y_40 + y_43 + y_46 >= 1
 c_1_41: y_41 + y_45 + y_49 >= 1
 c_1_42: y_12 + y_26 + y_42 >= 1
 c_1_43: y_0 + y_40 + y_43 >= 1
 c_1_44: y_44 >= 1
 c_1_45: y_41 + y_45 + y_49 >= 1
 c_1_46: y_40 + y_46 >= 1
 c_1_47: y_28 + y_37 + y_39 + y_47 >= 1
 c_1_48: y_48 >= 1
 c_1_49: y_41 + y_45 + y_49 >= 1
 c_2_0: - 2 y_0 + x_0_1 + x_0_2 + x_0_3 + x_0_4 + x_0_5 + x_0_6 + x_0_7
   + x_0_8 + x_0_10 + x_0_11 + x_0_13 + x_0_15 + x_0_16 + x_0_18 + x_0_19
   + x_0_20 + x_0_21 + x_0_24 + x_0_26 + x_0_27 + x_0_28 + x_0_29 + x_0_30
   + x_0_31 + x_0_32 + x_0_33 + x_0_34 + x_0_35 + x_0_36 + x_0_37 + x_0_38
   + x_0_40 + x_0_41 + x_0_42 + x_0_43 + x_0_44 + x_0_46 + x_0_47 = 0
 c_2_1: - 2 y_1 + x_0_1 + x_1_3 + x_1_4 + x_1_5 + x_1_7 + x_1_8 + x_1_9
   + x_1_11 + x_1_12 + x_1_13 + x_1_16 + x_1_17 + x_1_18 + x_1_19 + x_1_20
   + x_1_21 + x_1_22 + x_1_24 + x_1_25 + x_1_26 + x_1_28 + x_1_29 + x_1_30
   + x_1_32 + x_1_33 + x_1_36 + x_1_37 + x_1_38 + x_1_39 + x_1_40 + x_1_42
   + x_1_45 + x_1_46 + x_1_47 + x_1_48 + x_1_49 = 0
 c_2_2: - 2 y_2 + x_0_2 + x_2_3 + x_2_5 + x_2_6 + x_2_7 + x_2_10 + x_2_11
   + x_2_13 + x_2_14 + x_2_17 + x_2_18 + x_2_20 + x_2_21 + x_2_22 + x_2_23
   + x_2_24 + x_2_25 + x_2_26 + x_2_28 + x_2_31 + x_2_32 + x_2_33 + x_2_34
   + x_2_35 + x_2_36 + x_2_37 + x_2_39 + x_2_41 + x_2_43 + x_2_44 + x_2_45
   + x_2_46 + x_2_47 = 0
 c_2_3: - 2 y_3 + x_0_3 + x_1_3 + x_2_3 + x_3_4 + x_3_5 + x_3_7 + x_3_9
   + x_3_12 + x_3_13 + x_3_16 + x_3_18 + x_3_20 + x_3_21 + x_3_23 + x_3_24
   + x_3_25 + x_3_27 + x_3_28 + x_3_29 + x_3_30 + x_3_31 + x_3_32 + x_3_33
   + x_3_34 + x_3_36 + x_3_37 + x_3_38 + x_3_43 + x_3_44 + x_3_45 + x_3_47
   = 0
 c_2_4: - 2 y_4 + x_0_4 + x_1_4 + x_3_4 + x_4_6 + x_4_7 + x_4_10 + x_4_11
   + x_4_12 + x_4_13 + x_4_15 + x_4_16 + x_4_19 + x_4_21 + x_4_22 + x_4_23
   + x_4_25 + x_4_27 + x_4_29 + x_4_31 + x_4_33 + x_4_34 + x_4_36 + x_4_37
   + x_4_38 + x_4_40 + x_4_41 + x_4_45 + x_4_47 + x_4_48 + x_4_49 = 0
 c_2_5: - 2 y_5 + x_0_5 + x_1_5 + x_2_5 + x_3_5 + x_5_7 + x_5_8 + x_5_9
   + x_5_11 + x_5_13 + x_5_14 + x_5_15 + x_5_16 + x_5_18 + x_5_19 + x_5_20
   + x_5_21 + x_5_22 + x_5_24 + x_5_25 + x_5_26 + x_5_27 + x_5_28 + x_5_31
   + x_5_32 + x_5_33 + x_5_34 + x_5_35 + x_5_37 + x_5_38 + x_5_40 + x_5_41
   + x_5_43 + x_5_44 + x_5_45 + x_5_46 + x_5_47 + x_5_48 + x_5_49 = 0
 c_2_6: - 2 y_6 + x_0_6 + x_2_6 + x_4_6 + x_6_7 + x_6_10 + x_6_11 + x_6_13
   + x_6_15 + x_6_16 + x_6_17 + x_6_19 + x_6_20 + x_6_21 + x_6_22 + x_6_24
   + x_6_28 + x_6_29 + x_6_30 + x_6_31 + x_6_32 + x_6_33 + x_6_34 + x_6_35
   + x_6_36 + x_6_38 + x_6_39 + x_6_40 + x_6_42 + x_6_43 + x_6_44 + x_6_45
   + x_6_46 + x_6_48 + x_6_49 = 0
 c_2_7: - 2 y_7 + x_0_7 + x_1_7 + x_2_7 + x_3_7 + x_4_7 + x_5_7 + x_6_7
   + x_7_8 + x_7_9 + x_7_10 + x_7_12 + x_7_13 + x_7_15 + x_7_18 + x_7_19
   + x_7_20 + x_7_22 + x_7_23 + x_7_24 + x_7_25 + x_7_26 + x_7_27 + x_7_28
   + x_7_29 + x_7_31 + x_7_33 + x_7_35 + x_7_36 + x_7_40 + x_7_41 + x_7_42
   + x_7_43 + x_7_47 + x_7_49 = 0
 c_2_8: - 2 y_8 + x_0_8 + x_1_8 + x_5_8 + x_7_8 + x_8_12 + x_8_13 + x_8_15
   + x_8_16 + x_8_17 + x_8_18 + x_8_19 + x_8_22 + x_8_23 + x_8_24 + x_8_25
   + x_8_26 + x_8_28 + x_8_29 + x_8_30 + x_8_31 + x_8_34 + x_8_35 + x_8_36
   + x_8_37 + x_8_38 + x_8_39 + x_8_40 + x_8_41 + x_8_42 + x_8_43 + x_8_44
   + x_8_45 + x_8_46 + x_8_47 + x_8_48 + x_8_49 = 0
 c_2_9: - 2 y_9 + x_1_9 + x_3_9 + x_5_9 + x_7_9 + x_9_10 + x_9_14 + x_9_15
   + x_9_16 + x_9_20 + x_9_21 + x_9_23 + x_9_24 + x_9_25 + x_9_26 + x_9_29
   + x_9_31 + x_9_35 + x_9_36 + x_9_41 + x_9_42 + x_9_43 + x_9_44 + x_9_45
   + x_9_47 + x_9_48 + x_9_49 = 0
 c_2_10: - 2 y_10 + x_0_10 + x_2_10 + x_4_10 + x_6_10 + x_7_10 + x_9_10
   + x_10_11 + x_10_13 + x_10_14 + x_10_15 + x_10_17 + x_10_21 + x_10_22
   + x_10_23 + x_10_24 + x_10_25 + x_10_26 + x_10_30 + x_10_31 + x_10_32
   + x_10_33 + x_10_34 + x_10_36 + x_10_37 + x_10_38 + x_10_39 + x_10_40
   + x_10_41 + x_10_42 + x_10_43 + x_10_44 + x_10_45 + x_10_46 + x_10_48
   + x_10_49 = 0
 c_2_11: - 2 y_11 + x_0_11 + x_1_11 + x_2_11 + x_4_11 + x_5_11 + x_6_11
   + x_10_11 + x_11_12 + x_11_13 + x_11_15 + x_11_16 + x_11_17 + x_11_18
   + x_11_19 + x_11_20 + x_11_21 + x_11_22 + x_11_23 + x_11_24 + x_11_26
   + x_11_28 + x_11_29 + x_11_31 + x_11_32 + x_11_37 + x_11_38 + x_11_39
   + x_11_41 + x_11_42 + x_11_43 + x_11_49 = 0
 c_2_12: - 2 y_12 + x_1_12 + x_3_12 + x_4_12 + x_7_12 + x_8_12 + x_11_12
   + x_12_13 + x_12_14 + x_12_15 + x_12_16 + x_12_18 + x_12_19 + x_12_21
   + x_12_22 + x_12_23 + x_12_24 + x_12_27 + x_12_28 + x_12_31 + x_12_32
   + x_12_33 + x_12_34 + x_12_35 + x_12_37 + x_12_39 + x_12_40 + x_12_41
   + x_12_44 + x_12_46 + x_12_48 + x_12_49 = 0
 c_2_13: - 2 y_13 + x_0_13 + x_1_13 + x_2_13 + x_3_13 + x_4_13 + x_5_13
   + x_6_13 + x_7_13 + x_8_13 + x_10_13 + x_11_13 + x_12_13 + x_13_14
   + x_13_15 + x_13_16 + x_13_17 + x_13_19 + x_13_20 + x_13_22 + x_13_23
   + x_13_25 + x_13_26 + x_13_27 + x_13_28 + x_13_29 + x_13_31 + x_13_32
   + x_13_33 + x_13_35 + x_13_36 + x_13_38 + x_13_39 + x_13_40 + x_13_42
   + x_13_43 + x_13_44 + x_13_47 + x_13_48 + x_13_49 = 0
 c_2_14: - 2 y_14 + x_2_14 + x_5_14 + x_9_14 + x_10_14 + x_12_14 + x_13_14
   + x_14_15 + x_14_16 + x_14_17 + x_14_19 + x_14_20 + x_14_21 + x_14_23
   + x_14_27 + x_14_29 + x_14_30 + x_14_31 + x_14_32 + x_14_33 + x_14_34
   + x_14_36 + x_14_37 + x_14_38 + x_14_39 + x_14_40 + x_14_41 + x_14_42
   + x_14_43 + x_14_45 + x_14_47 + x_14_48 = 0
 c_2_15: - 2 y_15 + x_0_15 + x_4_15 + x_5_15 + x_6_15 + x_7_15 + x_8_15
   + x_9_15 + x_10_15 + x_11_15 + x_12_15 + x_13_15 + x_14_15 + x_15_16
   + x_15_17 + x_15_18 + x_15_20 + x_15_21 + x_15_22 + x_15_23 + x_15_24
   + x_15_25 + x_15_27 + x_15_30 + x_15_33 + x_15_34 + x_15_36 + x_15_37
   + x_15_38 + x_15_40 + x_15_41 + x_15_42 + x_15_43 + x_15_44 + x_15_45
   + x_15_46 + x_15_47 + x_15_48 + x_15_49 = 0
 c_2_16: - 2 y_16 + x_0_16 + x_1_16 + x_3_16 + x_4_16 + x_5_16 + x_6_16
   + x_8_16 + x_9_16 + x_11_16 + x_12_16 + x_13_16 + x_14_16 + x_15_16
   + x_16_18 + x_16_21 + x_16_22 + x_16_23 + x_16_24 + x_16_25 + x_16_26
   + x_16_27 + x_16_29 + x_16_31 + x_16_33 + x_16_37 + x_16_39 + x_16_41
   + x_16_43 + x_16_44 + x_16_45 + x_16_47 + x_16_48 + x_16_49 = 0
 c_2_17: - 2 y_17 + x_1_17 + x_2_17 + x_6_17 + x_8_17 + x_10_17 + x_11_17
   + x_13_17 + x_14_17 + x_15_17 + x_17_19 + x_17_21 + x_17_22 + x_17_23
   + x_17_24 + x_17_25 + x_17_26 + x_17_27 + x_17_28 + x_17_29 + x_17_31
   + x_17_34 + x_17_36 + x_17_37 + x_17_38 + x_17_40 + x_17_42 + x_17_43
   + x_17_44 + x_17_45 + x_17_47 + x_17_48 = 0
 c_2_18: - 2 y_18 + x_0_18 + x_1_18 + x_2_18 + x_3_18 + x_5_18 + x_7_18
   + x_8_18 + x_11_18 + x_12_18 + x_15_18 + x_16_18 + x_18_19 + x_18_20
   + x_18_21 + x_18_22 + x_18_24 + x_18_25 + x_18_26 + x_18_27 + x_18_28
   + x_18_29 + x_18_31 + x_18_32 + x_18_34 + x_18_35 + x_18_39 + x_18_40
   + x_18_42 + x_18_43 + x_18_44 + x_18_45 + x_18_46 + x_18_47 + x_18_48
   + x_18_49 = 0
 c_2_19: - 2 y_19 + x_0_19 + x_1_19 + x_4_19 + x_5_19 + x_6_19 + x_7_19
   + x_8_19 + x_11_19 + x_12_19 + x_13_19 + x_14_19 + x_17_19 + x_18_19
   + x_19_20 + x_19_23 + x_19_24 + x_19_25 + x_19_26 + x_19_27 + x_19_28
   + x_19_31 + x_19_34 + x_19_35 + x_19_36 + x_19_37 + x_19_40 + x_19_41
   + x_19_42 + x_19_43 + x_19_49 = 0
 c_2_20: - 2 y_20 + x_0_20 + x_1_20 + x_2_20 + x_3_20 + x_5_20 + x_6_20
   + x_7_20 + x_9_20 + x_11_20 + x_13_20 + x_14_20 + x_15_20 + x_18_20
   + x_19_20 + x_20_21 + x_20_23 + x_20_25 + x_20_26 + x_20_27 + x_20_29
   + x_20_30 + x_20_32 + x_20_34 + x_20_36 + x_20_37 + x_20_38 + x_20_40
   + x_20_41 + x_20_43 + x_20_44 + x_20_46 + x_20_47 + x_20_48 = 0
 c_2_21: - 2 y_21 + x_0_21 + x_1_21 + x_2_21 + x_3_21 + x_4_21 + x_5_21
   + x_6_21 + x_9_21 + x_10_21 + x_11_21 + x_12_21 + x_14_21 + x_15_21
   + x_16_21 + x_17_21 + x_18_21 + x_20_21 + x_21_22 + x_21_23 + x_21_24
   + x_21_25 + x_21_26 + x_21_27 + x_21_28 + x_21_29 + x_21_30 + x_21_31
   + x_21_32 + x_21_34 + x_21_35 + x_21_36 + x_21_37 + x_21_38 + x_21_42
   + x_21_43 + x_21_44 + x_21_45 + x_21_46 + x_21_47 + x_21_48 + x_21_49
   = 0
 c_2_22: - 2 y_22 + x_1_22 + x_2_22 + x_4_22 + x_5_22 + x_6_22 + x_7_22
   + x_8_22 + x_10_22 + x_11_22 + x_12_22 + x_13_22 + x_15_22 + x_16_22
   + x_17_22 + x_18_22 + x_21_22 + x_22_24 + x_22_25 + x_22_26 + x_22_27
   + x_22_28 + x_22_29 + x_22_30 + x_22_32 + x_22_33 + x_22_35 + x_22_36
   + x_22_37 + x_22_38 + x_22_39 + x_22_44 + x_22_46 + x_22_47 + x_22_48
   = 0
 c_2_23: - 2 y_23 + x_2_23 + x_3_23 + x_4_23 + x_7_23 + x_8_23 + x_9_23
   + x_10_23 + x_11_23 + x_12_23 + x_13_23 + x_14_23 + x_15_23 + x_16_23
   + x_17_23 + x_19_23 + x_20_23 + x_21_23 + x_23_24 + x_23_25 + x_23_26
   + x_23_28 + x_23_29 + x_23_30 + x_23_31 + x_23_32 + x_23_33 + x_23_35
   + x_23_37 + x_23_40 + x_23_42 + x_23_43 + x_23_44 + x_23_45 + x_23_48
   + x_23_49 = 0
 c_2_24: - 2 y_24 + x_0_24 + x_1_24 + x_2_24 + x_3_24 + x_5_24 + x_6_24
   + x_7_24 + x_8_24 + x_9_24 + x_10_24 + x_11_24 + x_12_24 + x_15_24
   + x_16_24 + x_17_24 + x_18_24 + x_19_24 + x_21_24 + x_22_24 + x_23_24
   + x_24_26 + x_24_28 + x_24_30 + x_24_33 + x_24_34 + x_24_35 + x_24_36
   + x_24_37 + x_24_38 + x_24_39 + x_24_40 + x_24_42 + x_24_43 + x_24_45
   + x_24_46 + x_24_47 + x_24_49 = 0
 c_2_25: - 2 y_25 + x_1_25 + x_2_25 + x_3_25 + x_4_25 + x_5_25 + x_7_25
   + x_8_25 + x_9_25 + x_10_25 + x_13_25 + x_15_25 + x_16_25 + x_17_25
   + x_18_25 + x_19_25 + x_20_25 + x_21_25 + x_22_25 + x_23_25 + x_25_26
   + x_25_29 + x_25_30 + x_25_31 + x_25_32 + x_25_33 + x_25_34 + x_25_35
   + x_25_36 + x_25_37 + x_25_38 + x_25_40 + x_25_42 + x_25_44 + x_25_45
   + x_25_46 + x_25_48 + x_25_49 = 0
 c_2_26: - 2 y_26 + x_0_26 + x_1_26 + x_2_26 + x_5_26 + x_7_26 + x_8_26
   + x_9_26 + x_10_26 + x_11_26 + x_13_26 + x_16_26 + x_17_26 + x_18_26
   + x_19_26 + x_20_26 + x_21_26 + x_22_26 + x_23_26 + x_24_26 + x_25_26
   + x_26_29 + x_26_30 + x_26_32 + x_26_36 + x_26_38 + x_26_40 + x_26_42
   + x_26_44 + x_26_45 + x_26_46 + x_26_47 = 0
 c_2_27: - 2 y_27 + x_0_27 + x_3_27 + x_4_27 + x_5_27 + x_7_27 + x_12_27
   + x_13_27 + x_14_27 + x_15_27 + x_16_27 + x_17_27 + x_18_27 + x_19_27
   + x_20_27 + x_21_27 + x_22_27 + x_27_28 + x_27_30 + x_27_31 + x_27_32
   + x_27_33 + x_27_34 + x_27_36 + x_27_38 + x_27_39 + x_27_40 + x_27_41
   + x_27_42 + x_27_43 + x_27_48 = 0
 c_2_28: - 2 y_28 + x_0_28 + x_1_28 + x_2_28 + x_3_28 + x_5_28 + x_6_28
   + x_7_28 + x_8_28 + x_11_28 + x_12_28 + x_13_28 + x_17_28 + x_18_28
   + x_19_28 + x_21_28 + x_22_28 + x_23_28 + x_24_28 + x_27_28 + x_28_30
   + x_28_31 + x_28_32 + x_28_33 + x_28_35 + x_28_36 + x_28_37 + x_28_38
   + x_28_40 + x_28_42 + x_28_43 + x_28_44 + x_28_45 + x_28_47 + x_28_48
   + x_28_49 = 0
 c_2_29: - 2 y_29 + x_0_29 + x_1_29 + x_3_29 + x_4_29 + x_6_29 + x_7_29
   + x_8_29 + x_9_29 + x_11_29 + x_13_29 + x_14_29 + x_16_29 + x_17_29
   + x_18_29 + x_20_29 + x_21_29 + x_22_29 + x_23_29 + x_25_29 + x_26_29
   + x_29_31 + x_29_32 + x_29_34 + x_29_35 + x_29_36 + x_29_37 + x_29_39
   + x_29_40 + x_29_41 + x_29_42 + x_29_43 + x_29_44 + x_29_45 + x_29_49
   = 0
 c_2_30: - 2 y_30 + x_0_30 + x_1_30 + x_3_30 + x_6_30 + x_8_30 + x_10_30
   + x_14_30 + x_15_30 + x_20_30 + x_21_30 + x_22_30 + x_23_30 + x_24_30
   + x_25_30 + x_26_30 + x_27_30 + x_28_30 + x_30_32 + x_30_33 + x_30_34
   + x_30_35 + x_30_36 + x_30_38 + x_30_39 + x_30_40 + x_30_42 + x_30_43
   + x_30_44 + x_30_46 + x_30_47 + x_30_48 + x_30_49 = 0
 c_2_31: - 2 y_31 + x_0_31 + x_2_31 + x_3_31 + x_4_31 + x_5_31 + x_6_31
   + x_7_31 + x_8_31 + x_9_31 + x_10_31 + x_11_31 + x_12_31 + x_13_31
   + x_14_31 + x_16_31 + x_17_31 + x_18_31 + x_19_31 + x_21_31 + x_23_31
   + x_25_31 + x_27_31 + x_28_31 + x_29_31 + x_31_32 + x_31_33 + x_31_34
   + x_31_35 + x_31_37 + x_31_38 + x_31_39 + x_31_40 + x_31_41 + x_31_42
   + x_31_43 + x_31_44 + x_31_45 + x_31_47 + x_31_49 = 0
 c_2_32: - 2 y_32 + x_0_32 + x_1_32 + x_2_32 + x_3_32 + x_5_32 + x_6_32
   + x_10_32 + x_11_32 + x_12_32 + x_13_32 + x_14_32 + x_18_32 + x_20_32
   + x_21_32 + x_22_32 + x_23_32 + x_25_32 + x_26_32 + x_27_32 + x_28_32
   + x_29_32 + x_30_32 + x_31_32 + x_32_33 + x_32_34 + x_32_35 + x_32_37
   + x_32_38 + x_32_39 + x_32_40 + x_32_41 + x_32_43 + x_32_44 + x_32_46
   + x_32_47 + x_32_48 + x_32_49 = 0
 c_2_33: - 2 y_33 + x_0_33 + x_1_33 + x_2_33 + x_3_33 + x_4_33 + x_5_33
   + x_6_33 + x_7_33 + x_10_33 + x_12_33 + x_13_33 + x_14_33 + x_15_33
   + x_16_33 + x_22_33 + x_23_33 + x_24_33 + x_25_33 + x_27_33 + x_28_33
   + x_30_33 + x_31_33 + x_32_33 + x_33_34 + x_33_36 + x_33_37 + x_33_39
   + x_33_40 + x_33_42 + x_33_44 + x_33_45 + x_33_46 + x_33_47 + x_33_48
   + x_33_49 = 0
 c_2_34: - 2 y_34 + x_0_34 + x_2_34 + x_3_34 + x_4_34 + x_5_34 + x_6_34
   + x_8_34 + x_10_34 + x_12_34 + x_14_34 + x_15_34 + x_17_34 + x_18_34
   + x_19_34 + x_20_34 + x_21_34 + x_24_34 + x_25_34 + x_27_34 + x_29_34
   + x_30_34 + x_31_34 + x_32_34 + x_33_34 + x_34_35 + x_34_36 + x_34_37
   + x_34_38 + x_34_41 + x_34_42 + x_34_43 + x_34_44 + x_34_45 + x_34_47
   + x_34_49 = 0
 c_2_35: - 2 y_35 + x_0_35 + x_2_35 + x_5_35 + x_6_35 + x_7_35 + x_8_35
   + x_9_35 + x_12_35 + x_13_35 + x_18_35 + x_19_35 + x_21_35 + x_22_35
   + x_23_35 + x_24_35 + x_25_35 + x_28_35 + x_29_35 + x_30_35 + x_31_35
   + x_32_35 + x_34_35 + x_35_36 + x_35_38 + x_35_39 + x_35_40 + x_35_41
   + x_35_42 + x_35_43 + x_35_44 + x_35_45 + x_35_46 + x_35_49 = 0
 c_2_36: - 2 y_36 + x_0_36 + x_1_36 + x_2_36 + x_3_36 + x_4_36 + x_6_36
   + x_7_36 + x_8_36 + x_9_36 + x_10_36 + x_13_36 + x_14_36 + x_15_36
   + x_17_36 + x_19_36 + x_20_36 + x_21_36 + x_22_36 + x_24_36 + x_25_36
   + x_26_36 + x_27_36 + x_28_36 + x_29_36 + x_30_36 + x_33_36 + x_34_36
   + x_35_36 + x_36_37 + x_36_38 + x_36_40 + x_36_41 + x_36_42 + x_36_45
   + x_36_47 + x_36_48 + x_36_49 = 0
 c_2_37: - 2 y_37 + x_0_37 + x_1_37 + x_2_37 + x_3_37 + x_4_37 + x_5_37
   + x_8_37 + x_10_37 + x_11_37 + x_12_37 + x_14_37 + x_15_37 + x_16_37
   + x_17_37 + x_19_37 + x_20_37 + x_21_37 + x_22_37 + x_23_37 + x_24_37
   + x_25_37 + x_28_37 + x_29_37 + x_31_37 + x_32_37 + x_33_37 + x_34_37
   + x_36_37 + x_37_38 + x_37_39 + x_37_40 + x_37_43 + x_37_44 + x_37_46
   + x_37_47 + x_37_48 + x_37_49 = 0
 c_2_38: - 2 y_38 + x_0_38 + x_1_38 + x_3_38 + x_4_38 + x_5_38 + x_6_38
   + x_8_38 + x_10_38 + x_11_38 + x_13_38 + x_14_38 + x_15_38 + x_17_38
   + x_20_38 + x_21_38 + x_22_38 + x_24_38 + x_25_38 + x_26_38 + x_27_38
   + x_28_38 + x_30_38 + x_31_38 + x_32_38 + x_34_38 + x_35_38 + x_36_38
   + x_37_38 + x_38_40 + x_38_41 + x_38_42 + x_38_43 + x_38_45 + x_38_46
   + x_38_47 + x_38_48 = 0
 c_2_39: - 2 y_39 + x_1_39 + x_2_39 + x_6_39 + x_8_39 + x_10_39 + x_11_39
   + x_12_39 + x_13_39 + x_14_39 + x_16_39 + x_18_39 + x_22_39 + x_24_39
   + x_27_39 + x_29_39 + x_30_39 + x_31_39 + x_32_39 + x_33_39 + x_35_39
   + x_37_39 + x_39_41 + x_39_42 + x_39_44 + x_39_45 + x_39_46 + x_39_47
   + x_39_49 = 0
 c_2_40: - 2 y_40 + x_0_40 + x_1_40 + x_4_40 + x_5_40 + x_6_40 + x_7_40
   + x_8_40 + x_10_40 + x_12_40 + x_13_40 + x_14_40 + x_15_40 + x_17_40
   + x_18_40 + x_19_40 + x_20_40 + x_23_40 + x_24_40 + x_25_40 + x_26_40
   + x_27_40 + x_28_40 + x_29_40 + x_30_40 + x_31_40 + x_32_40 + x_33_40
   + x_35_40 + x_36_40 + x_37_40 + x_38_40 + x_40_42 + x_40_45 + x_40_48
   + x_40_49 = 0
 c_2_41: - 2 y_41 + x_0_41 + x_2_41 + x_4_41 + x_5_41 + x_7_41 + x_8_41
   + x_9_41 + x_10_41 + x_11_41 + x_12_41 + x_14_41 + x_15_41 + x_16_41
   + x_19_41 + x_20_41 + x_27_41 + x_29_41 + x_31_41 + x_32_41 + x_34_41
   + x_35_41 + x_36_41 + x_38_41 + x_39_41 + x_41_42 + x_41_44 + x_41_45
   + x_41_46 + x_41_47 + x_41_48 + x_41_49 = 0
 c_2_42: - 2 y_42 + x_0_42 + x_1_42 + x_6_42 + x_7_42 + x_8_42 + x_9_42
   + x_10_42 + x_11_42 + x_13_42 + x_14_42 + x_15_42 + x_17_42 + x_18_42
   + x_19_42 + x_21_42 + x_23_42 + x_24_42 + x_25_42 + x_26_42 + x_27_42
   + x_28_42 + x_29_42 + x_30_42 + x_31_42 + x_33_42 + x_34_42 + x_35_42
   + x_36_42 + x_38_42 + x_39_42 + x_40_42 + x_41_42 + x_42_43 + x_42_44
   + x_42_45 + x_42_46 + x_42_48 + x_42_49 = 0
 c_2_43: - 2 y_43 + x_0_43 + x_2_43 + x_3_43 + x_5_43 + x_6_43 + x_7_43
   + x_8_43 + x_9_43 + x_10_43 + x_11_43 + x_13_43 + x_14_43 + x_15_43
   + x_16_43 + x_17_43 + x_18_43 + x_19_43 + x_20_43 + x_21_43 + x_23_43
   + x_24_43 + x_27_43 + x_28_43 + x_29_43 + x_30_43 + x_31_43 + x_32_43
   + x_34_43 + x_35_43 + x_37_43 + x_38_43 + x_42_43 + x_43_44 + x_43_45
   + x_43_46 + x_43_47 + x_43_48 + x_43_49 = 0
 c_2_44: - 2 y_44 + x_0_44 + x_2_44 + x_3_44 + x_5_44 + x_6_44 + x_8_44
   + x_9_44 + x_10_44 + x_12_44 + x_13_44 + x_15_44 + x_16_44 + x_17_44
   + x_18_44 + x_20_44 + x_21_44 + x_22_44 + x_23_44 + x_25_44 + x_26_44
   + x_28_44 + x_29_44 + x_30_44 + x_31_44 + x_32_44 + x_33_44 + x_34_44
   + x_35_44 + x_37_44 + x_39_44 + x_41_44 + x_42_44 + x_43_44 + x_44_46
   + x_44_48 = 0
 c_2_45: - 2 y_45 + x_1_45 + x_2_45 + x_3_45 + x_4_45 + x_5_45 + x_6_45
   + x_8_45 + x_9_45 + x_10_45 + x_14_45 + x_15_45 + x_16_45 + x_17_45
   + x_18_45 + x_21_45 + x_23_45 + x_24_45 + x_25_45 + x_26_45 + x_28_45
   + x_29_45 + x_31_45 + x_33_45 + x_34_45 + x_35_45 + x_36_45 + x_38_45
   + x_39_45 + x_40_45 + x_41_45 + x_42_45 + x_43_45 + x_45_46 + x_45_47
   + x_45_48 + x_45_49 = 0
 c_2_46: - 2 y_46 + x_0_46 + x_1_46 + x_2_46 + x_5_46 + x_6_46 + x_8_46
   + x_10_46 + x_12_46 + x_15_46 + x_18_46 + x_20_46 + x_21_46 + x_22_46
   + x_24_46 + x_25_46 + x_26_46 + x_30_46 + x_32_46 + x_33_46 + x_35_46
   + x_37_46 + x_38_46 + x_39_46 + x_41_46 + x_42_46 + x_43_46 + x_44_46
   + x_45_46 + x_46_47 + x_46_48 = 0
 c_2_47: - 2 y_47 + x_0_47 + x_1_47 + x_2_47 + x_3_47 + x_4_47 + x_5_47
   + x_7_47 + x_8_47 + x_9_47 + x_13_47 + x_14_47 + x_15_47 + x_16_47
   + x_17_47 + x_18_47 + x_20_47 + x_21_47 + x_22_47 + x_24_47 + x_26_47
   + x_28_47 + x_30_47 + x_31_47 + x_32_47 + x_33_47 + x_34_47 + x_36_47
   + x_37_47 + x_38_47 + x_39_47 + x_41_47 + x_43_47 + x_45_47 + x_46_47
   + x_47_48 + x_47_49 = 0
 c_2_48: - 2 y_48 + x_1_48 + x_4_48 + x_5_48 + x_6_48 + x_8_48 + x_9_48
   + x_10_48 + x_12_48 + x_13_48 + x_14_48 + x_15_48 + x_16_48 + x_17_48
   + x_18_48 + x_20_48 + x_21_48 + x_22_48 + x_23_48 + x_25_48 + x_27_48
   + x_28_48 + x_30_48 + x_32_48 + x_33_48 + x_36_48 + x_37_48 + x_38_48
   + x_40_48 + x_41_48 + x_42_48 + x_43_48 + x_44_48 + x_45_48 + x_46_48
   + x_47_48 = 0
 c_2_49: - 2 y_49 + x_1_49 + x_4_49 + x_5_49 + x_6_49 + x_7_49 + x_8_49
   + x_9_49 + x_10_49 + x_11_49 + x_12_49 + x_13_49 + x_15_49 + x_16_49
   + x_18_49 + x_19_49 + x_21_49 + x_23_49 + x_24_49 + x_25_49 + x_28_49
   + x_29_49 + x_30_49 + x_31_49 + x_32_49 + x_33_49 + x_34_49 + x_35_49
   + x_36_49 + x_37_49 + x_39_49 + x_40_49 + x_41_49 + x_42_49 + x_43_49
   + x_45_49 + x_47_49 = 0
Bounds
 Constant = 1
Binaries
 y_0 y_1 y_2 y_3 y_4 y_5 y_6 y_7 y_8 y_9 y_10 y_11 y_12 y_13 y_14 y_15 y_16
 y_17 y_18 y_19 y_20 y_21 y_22 y_23 y_24 y_25 y_26 y_27 y_28 y_29 y_30 y_31
 y_32 y_33 y_34 y_35 y_36 y_37 y_38 y_39 y_40 y_41 y_42 y_43 y_44 y_45 y_46
 y_47 y_48 y_49 x_0_1 x_0_2 x_0_3 x_0_4 x_0_5 x_0_6 x_0_7 x_0_8 x_0_10
 x_0_11 x_0_13 x_0_15 x_0_16 x_0_18 x_0_19 x_0_20 x_0_21 x_0_24 x_0_26
 x_0_27 x_0_28 x_0_29 x_0_30 x_0_31 x_0_32 x_0_33 x_0_34 x_0_35 x_0_36
 x_0_37 x_0_38 x_0_40 x_0_41 x_0_42 x_0_43 x_0_44 x_0_46 x_0_47 x_1_3 x_1_4
 x_1_5 x_1_7 x_1_8 x_1_9 x_1_11 x_1_12 x_1_13 x_1_16 x_1_17 x_1_18 x_1_19
 x_1_20 x_1_21 x_1_22 x_1_24 x_1_25 x_1_26 x_1_28 x_1_29 x_1_30 x_1_32
 x_1_33 x_1_36 x_1_37 x_1_38 x_1_39 x_1_40 x_1_42 x_1_45 x_1_46 x_1_47
 x_1_48 x_1_49 x_2_3 x_2_5 x_2_6 x_2_7 x_2_10 x_2_11 x_2_13 x_2_14 x_2_17
 x_2_18 x_2_20 x_2_21 x_2_22 x_2_23 x_2_24 x_2_25 x_2_26 x_2_28 x_2_31
 x_2_32 x_2_33 x_2_34 x_2_35 x_2_36 x_2_37 x_2_39 x_2_41 x_2_43 x_2_44
 x_2_45 x_2_46 x_2_47 x_3_4 x_3_5 x_3_7 x_3_9 x_3_12 x_3_13 x_3_16 x_3_18
 x_3_20 x_3_21 x_3_23 x_3_24 x_3_25 x_3_27 x_3_28 x_3_29 x_3_30 x_3_31
 x_3_32 x_3_33 x_3_34 x_3_36 x_3_37 x_3_38 x_3_43 x_3_44 x_3_45 x_3_47
 x_4_6 x_4_7 x_4_10 x_4_11 x_4_12 x_4_13 x_4_15 x_4_16 x_4_19 x_4_21 x_4_22
 x_4_23 x_4_25 x_4_27 x_4_29 x_4_31 x_4_33 x_4_34 x_4_36 x_4_37 x_4_38
 x_4_40 x_4_41 x_4_45 x_4_47 x_4_48 x_4_49 x_5_7 x_5_8 x_5_9 x_5_11 x_5_13
 x_5_14 x_5_15 x_5_16 x_5_18 x_5_19 x_5_20 x_5_21 x_5_22 x_5_24 x_5_25
 x_5_26 x_5_27 x_5_28 x_5_31 x_5_32 x_5_33 x_5_34 x_5_35 x_5_37 x_5_38
 x_5_40 x_5_41 x_5_43 x_5_44 x_5_45 x_5_46 x_5_47 x_5_48 x_5_49 x_6_7
 x_6_10 x_6_11 x_6_13 x_6_15 x_6_16 x_6_17 x_6_19 x_6_20 x_6_21 x_6_22
 x_6_24 x_6_28 x_6_29 x_6_30 x_6_31 x_6_32 x_6_33 x_6_34 x_6_35 x_6_36
 x_6_38 x_6_39 x_6_40 x_6_42 x_6_43 x_6_44 x_6_45 x_6_46 x_6_48 x_6_49
 x_7_8 x_7_9 x_7_10 x_7_12 x_7_13 x_7_15 x_7_18 x_7_19 x_7_20 x_7_22 x_7_23
 x_7_24 x_7_25 x_7_26 x_7_27 x_7_28 x_7_29 x_7_31 x_7_33 x_7_35 x_7_36
 x_7_40 x_7_41 x_7_42 x_7_43 x_7_47 x_7_49 x_8_12 x_8_13 x_8_15 x_8_16
 x_8_17 x_8_18 x_8_19 x_8_22 x_8_23 x_8_24 x_8_25 x_8_26 x_8_28 x_8_29
 x_8_30 x_8_31 x_8_34 x_8_35 x_8_36 x_8_37 x_8_38 x_8_39 x_8_40 x_8_41
 x_8_42 x_8_43 x_8_44 x_8_45 x_8_46 x_8_47 x_8_48 x_8_49 x_9_10 x_9_14
 x_9_15 x_9_16 x_9_20 x_9_21 x_9_23 x_9_24 x_9_25 x_9_26 x_9_29 x_9_31
 x_9_35 x_9_36 x_9_41 x_9_42 x_9_43 x_9_44 x_9_45 x_9_47 x_9_48 x_9_49
 x_10_11 x_10_13 x_10_14 x_10_15 x_10_17 x_10_21 x_10_22 x_10_23 x_10_24
 x_10_25 x_10_26 x_10_30 x_10_31 x_10_32 x_10_33 x_10_34 x_10_36 x_10_37
 x_10_38 x_10_39 x_10_40 x_10_41 x_10_42 x_10_43 x_10_44 x_10_45 x_10_46
 x_10_48 x_10_49 x_11_12 x_11_13 x_11_15 x_11_16 x_11_17 x_11_18 x_11_19
 x_11_20 x_11_21 x_11_22 x_11_23 x_11_24 x_11_26 x_11_28 x_11_29 x_11_31
 x_11_32 x_11_37 x_11_38 x_11_39 x_11_41 x_11_42 x_11_43 x_11_49 x_12_13
 x_12_14 x_12_15 x_12_16 x_12_18 x_12_19 x_12_21 x_12_22 x_12_23 x_12_24
 x_12_27 x_12_28 x_12_31 x_12_32 x_12_33 x_12_34 x_12_35 x_12_37 x_12_39
 x_12_40 x_12_41 x_12_44 x_12_46 x_12_48 x_12_49 x_13_14 x_13_15 x_13_16
 x_13_17 x_13_19 x_13_20 x_13_22 x_13_23 x_13_25 x_13_26 x_13_27 x_13_28
 x_13_29 x_13_31 x_13_32 x_13_33 x_13_35 x_13_36 x_13_38 x_13_39 x_13_40
 x_13_42 x_13_43 x_13_44 x_13_47 x_13_48 x_13_49 x_14_15 x_14_16 x_14_17
 x_14_19 x_14_20 x_14_21 x_14_23 x_14_27 x_14_29 x_14_30 x_14_31 x_14_32
 x_14_33 x_14_34 x_14_36 x_14_37 x_14_38 x_14_39 x_14_40 x_14_41 x_14_42
 x_14_43 x_14_45 x_14_47 x_14_48 x_15_16 x_15_17 x_15_18 x_15_20 x_15_21
 x_15_22 x_15_23 x_15_24 x_15_25 x_15_27 x_15_30 x_15_33 x_15_34 x_15_36
 x_15_37 x_15_38 x_15_40 x_15_41 x_15_42 x_15_43 x_15_44 x_15_45 x_15_46
 x_15_47 x_15_48 x_15_49 x_16_18 x_16_21 x_16_22 x_16_23 x_16_24 x_16_25
 x_16_26 x_16_27 x_16_29 x_16_31 x_16_33 x_16_37 x_16_39 x_16_41 x_16_43
 x_16_44 x_16_45 x_16_47 x_16_48 x_16_49 x_17_19 x_17_21 x_17_22 x_17_23
 x_17_24 x_17_25 x_17_26 x_17_27 x_17_28 x_17_29 x_17_31 x_17_34 x_17_36
 x_17_37 x_17_38 x_17_40 x_17_42 x_17_43 x_17_44 x_17_45 x_17_47 x_17_48
 x_18_19 x_18_20 x_18_21 x_18_22 x_18_24 x_18_25 x_18_26 x_18_27 x_18_28
 x_18_29 x_18_31 x_18_32 x_18_34 x_18_35 x_18_39 x_18_40 x_18_42 x_18_43
 x_18_44 x_18_45 x_18_46 x_18_47 x_18_48 x_18_49 x_19_20 x_19_23 x_19_24
 x_19_25 x_19_26 x_19_27 x_19_28 x_19_31 x_19_34 x_19_35 x_19_36 x_19_37
 x_19_40 x_19_41 x_19_42 x_19_43 x_19_49 x_20_21 x_20_23 x_20_25 x_20_26
 x_20_27 x_20_29 x_20_30 x_20_32 x_20_34 x_20_36 x_20_37 x_20_38 x_20_40
 x_20_41 x_20_43 x_20_44 x_20_46 x_20_47 x_20_48 x_21_22 x_21_23 x_21_24
 x_21_25 x_21_26 x_21_27 x_21_28 x_21_29 x_21_30 x_21_31 x_21_32 x_21_34
 x_21_35 x_21_36 x_21_37 x_21_38 x_21_42 x_21_43 x_21_44 x_21_45 x_21_46
 x_21_47 x_21_48 x_21_49 x_22_24 x_22_25 x_22_26 x_22_27 x_22_28 x_22_29
 x_22_30 x_22_32 x_22_33 x_22_35 x_22_36 x_22_37 x_22_38 x_22_39 x_22_44
 x_22_46 x_22_47 x_22_48 x_23_24 x_23_25 x_23_26 x_23_28 x_23_29 x_23_30
 x_23_31 x_23_32 x_23_33 x_23_35 x_23_37 x_23_40 x_23_42 x_23_43 x_23_44
 x_23_45 x_23_48 x_23_49 x_24_26 x_24_28 x_24_30 x_24_33 x_24_34 x_24_35
 x_24_36 x_24_37 x_24_38 x_24_39 x_24_40 x_24_42 x_24_43 x_24_45 x_24_46
 x_24_47 x_24_49 x_25_26 x_25_29 x_25_30 x_25_31 x_25_32 x_25_33 x_25_34
 x_25_35 x_25_36 x_25_37 x_25_38 x_25_40 x_25_42 x_25_44 x_25_45 x_25_46
 x_25_48 x_25_49 x_26_29 x_26_30 x_26_32 x_26_36 x_26_38 x_26_40 x_26_42
 x_26_44 x_26_45 x_26_46 x_26_47 x_27_28 x_27_30 x_27_31 x_27_32 x_27_33
 x_27_34 x_27_36 x_27_38 x_27_39 x_27_40 x_27_41 x_27_42 x_27_43 x_27_48
 x_28_30 x_28_31 x_28_32 x_28_33 x_28_35 x_28_36 x_28_37 x_28_38 x_28_40
 x_28_42 x_28_43 x_28_44 x_28_45 x_28_47 x_28_48 x_28_49 x_29_31 x_29_32
 x_29_34 x_29_35 x_29_36 x_29_37 x_29_39 x_29_40 x_29_41 x_29_42 x_29_43
 x_29_44 x_29_45 x_29_49 x_30_32 x_30_33 x_30_34 x_30_35 x_30_36 x_30_38
 x_30_39 x_30_40 x_30_42 x_30_43 x_30_44 x_30_46 x_30_47 x_30_48 x_30_49
 x_31_32 x_31_33 x_31_34 x_31_35 x_31_37 x_31_38 x_31_39 x_31_40 x_31_41
 x_31_42 x_31_43 x_31_44 x_31_45 x_31_47 x_31_49 x_32_33 x_32_34 x_32_35
 x_32_37 x_32_38 x_32_39 x_32_40 x_32_41 x_32_43 x_32_44 x_32_46 x_32_47
 x_32_48 x_32_49 x_33_34 x_33_36 x_33_37 x_33_39 x_33_40 x_33_42 x_33_44
 x_33_45 x_33_46 x_33_47 x_33_48 x_33_49 x_34_35 x_34_36 x_34_37 x_34_38
 x_34_41 x_34_42 x_34_43 x_34_44 x_34_45 x_34_47 x_34_49 x_35_36 x_35_38
 x_35_39 x_35_40 x_35_41 x_35_42 x_35_43 x_35_44 x_35_45 x_35_46 x_35_49
 x_36_37 x_36_38 x_36_40 x_36_41 x_36_42 x_36_45 x_36_47 x_36_48 x_36_49
 x_37_38 x_37_39 x_37_40 x_37_43 x_37_44 x_37_46 x_37_47 x_37_48 x_37_49
 x_38_40 x_38_41 x_38_42 x_38_43 x_38_45 x_38_46 x_38_47 x_38_48 x_39_41
 x_39_42 x_39_44 x_39_45 x_39_46 x_39_47 x_39_49 x_40_42 x_40_45 x_40_48
 x_40_49 x_41_42 x_41_44 x_41_45 x_41_46 x_41_47 x_41_48 x_41_49 x_42_43
 x_42_44 x_42_45 x_42_46 x_42_48 x_42_49 x_43_44 x_43_45 x_43_46 x_43_47
 x_43_48 x_43_49 x_44_46 x_44_48 x_45_46 x_45_47 x_45_48 x_45_49 x_46_47
 x_46_48 x_47_48 x_47_49
End
